; benchmark generated from python API
(set-info :status unknown)
(declare-fun DISJ_W_S2_R_S1 () Bool)
(declare-fun W_S2_V3 () Bool)
(declare-fun W_S2_V5 () Bool)
(declare-fun W_S2_V2 () Bool)
(declare-fun R_S2_V1 () Bool)
(declare-fun DISJ_W_S1_W_S2 () Bool)
(declare-fun R_S2_V5 () Bool)
(declare-fun R_S2_V3 () Bool)
(declare-fun R_S2_V4 () Bool)
(declare-fun W_S2_V1 () Bool)
(declare-fun W_S1_V4 () Bool)
(declare-fun DISJ_W_S1_R_S2 () Bool)
(declare-fun DISJ_W_S2_R_S2 () Bool)
(declare-fun R_E1_V4 () Bool)
(declare-fun R_E1_V5 () Bool)
(declare-fun W_S1_V5 () Bool)
(declare-fun R_S2_V2 () Bool)
(declare-fun R_S1_V4 () Bool)
(declare-fun R_S1_V5 () Bool)
(declare-fun R_S1_V2 () Bool)
(declare-fun R_S1_V3 () Bool)
(declare-fun R_S1_V1 () Bool)
(declare-fun R_E1_V2 () Bool)
(declare-fun DISJ_W_S2_R_E1 () Bool)
(declare-fun R_E1_V3 () Bool)
(declare-fun DISJ_W_S1_R_S1 () Bool)
(declare-fun W_S2_V4 () Bool)
(declare-fun W_S1_V3 () Bool)
(declare-fun W_S1_V2 () Bool)
(declare-fun W_S1_V1 () Bool)
(declare-fun R_E1_V1 () Bool)
(declare-fun DISJ_W_S1_R_E1 () Bool)
(assert
 (let (($x2128 (not W_S2_V3)))
 (let (($x959 (not W_S2_V5)))
 (let (($x2438 (not W_S2_V2)))
 (let (($x2724 (not R_S2_V1)))
 (let (($x1113 (not (and $x2724 $x2438 $x959 $x2128 DISJ_W_S2_R_S1))))
 (let (($x329 (not (and DISJ_W_S1_W_S2 DISJ_W_S2_R_S1))))
 (let (($x812 (not (and $x2724 (not R_S2_V3) (not R_S2_V5) $x2438 DISJ_W_S2_R_S1))))
 (let (($x5923 (not (and $x2724 (not R_S2_V3) (not R_S2_V4) $x2438 DISJ_W_S2_R_S1))))
 (let (($x2005 (not (and $x2724 (not R_S2_V4) $x2438 $x959 DISJ_W_S2_R_S1))))
 (let (($x2672 (not (and $x2724 (not R_S2_V5) (not R_S2_V4) $x2438 DISJ_W_S2_R_S1))))
 (let (($x173 (not (and $x2724 (not R_S2_V3) $x2438 $x959 DISJ_W_S2_R_S1))))
 (let (($x239 (not W_S2_V1)))
 (let (($x3254 (and $x239 $x2438)))
 (let (($x2433 (not $x3254)))
 (let (($x3222 (not (and (not R_S2_V3) (not R_S2_V4) $x959 DISJ_W_S2_R_S1))))
 (let (($x3736 (not (and (not R_S2_V4) $x959 $x2128 DISJ_W_S2_R_S1))))
 (let (($x3616 (not (and (not R_S2_V3) (not W_S1_V4) $x959 DISJ_W_S2_R_S1))))
 (let (($x141 (not (and DISJ_W_S1_R_S2 DISJ_W_S2_R_S1))))
 (let (($x3788 (not (and $x2438 DISJ_W_S2_R_S2))))
 (let (($x3846 (not (and DISJ_W_S2_R_S1 DISJ_W_S2_R_S2))))
 (let (($x2364 (not (and W_S1_V4 R_E1_V4))))
 (let (($x637 (not (and W_S1_V5 R_E1_V5))))
 (let (($x3516 (forall ((V3_0 Int) )(forall ((V2_0 Int) )(forall ((V5_0 Int) )(forall ((V4_0 Int) )(forall ((MW_S1_V1 Bool) )(forall ((MW_S1_V3 Bool) )(forall ((MW_S1_V2 Bool) )(forall ((MW_S1_V5 Bool) )(forall ((MW_S1_V4 Bool) )(forall ((MW_S2_V1 Bool) )(forall ((MW_S2_V3 Bool) )(forall ((MW_S2_V2 Bool) )(forall ((MW_S2_V5 Bool) )(forall ((MW_S2_V4 Bool) )(forall ((S1_V1_!2447 Int) )(forall ((S1_V1_!2464 Int) )(forall ((S1_V1_!2474 Int) )(forall ((S2_V5_!2456 Int) )(forall ((S2_V5_!2461 Int) )(forall ((S2_V5_!2472 Int) )(forall ((S2_V5_!2482 Int) )(forall ((S1_V3_!2448 Int) )(forall ((S1_V3_!2465 Int) )(forall ((S1_V3_!2475 Int) )(forall ((S1_V2_!2449 Int) )(forall ((S1_V2_!2466 Int) )(forall ((S1_V2_!2476 Int) )(forall ((E1_!2446 Int) )(forall ((E1_!2452 Int) )(forall ((E1_!2463 Int) )(forall ((S2_V4_!2457 Int) )(forall ((S2_V4_!2462 Int) )(forall ((S2_V4_!2473 Int) )(forall ((S2_V4_!2483 Int) )(forall ((S1_V5_!2450 Int) )(forall ((S1_V5_!2467 Int) )(forall ((S1_V5_!2477 Int) )(forall ((S2_V1_!2453 Int) )(forall ((S2_V1_!2458 Int) )(forall ((S2_V1_!2469 Int) )(forall ((S2_V1_!2479 Int) )(forall ((S1_V4_!2451 Int) )(forall ((S1_V4_!2468 Int) )(forall ((S1_V4_!2478 Int) )(forall ((S2_V2_!2455 Int) )(forall ((S2_V2_!2460 Int) )(forall ((S2_V2_!2471 Int) )(forall ((S2_V2_!2481 Int) )(forall ((S2_V3_!2454 Int) )(forall ((S2_V3_!2459 Int) )(forall ((S2_V3_!2470 Int) )(forall ((S2_V3_!2480 Int) )(let (($x5857 (= (ite MW_S2_V4 S2_V4_!2462 (ite MW_S1_V4 S1_V4_!2451 V4_0)) (ite MW_S2_V4 S2_V4_!2483 (ite MW_S1_V4 S1_V4_!2478 (ite MW_S2_V4 S2_V4_!2473 (ite MW_S1_V4 S1_V4_!2468 V4_0)))))))
 (let (($x3373 (= (ite MW_S2_V5 S2_V5_!2461 (ite MW_S1_V5 S1_V5_!2450 V5_0)) (ite MW_S2_V5 S2_V5_!2482 (ite MW_S1_V5 S1_V5_!2477 (ite MW_S2_V5 S2_V5_!2472 (ite MW_S1_V5 S1_V5_!2467 V5_0)))))))
 (let ((?x2785 (ite MW_S1_V2 S1_V2_!2466 V2_0)))
 (let ((?x2924 (ite MW_S2_V2 S2_V2_!2471 ?x2785)))
 (let ((?x2141 (ite MW_S1_V2 S1_V2_!2476 ?x2924)))
 (let ((?x2741 (ite MW_S2_V2 S2_V2_!2481 ?x2141)))
 (let ((?x2481 (ite MW_S1_V2 S1_V2_!2449 V2_0)))
 (let ((?x3891 (ite MW_S2_V2 S2_V2_!2460 ?x2481)))
 (let (($x2032 (= (ite MW_S2_V3 S2_V3_!2459 (ite MW_S1_V3 S1_V3_!2448 V3_0)) (ite MW_S2_V3 S2_V3_!2480 (ite MW_S1_V3 S1_V3_!2475 (ite MW_S2_V3 S2_V3_!2470 (ite MW_S1_V3 S1_V3_!2465 V3_0)))))))
 (let ((?x966 (ite MW_S1_V1 S1_V1_!2464 E1_!2463)))
 (let ((?x1089 (ite MW_S2_V1 S2_V1_!2469 ?x966)))
 (let ((?x3282 (+ 1 ?x1089)))
 (let ((?x3808 (ite MW_S1_V1 S1_V1_!2474 ?x3282)))
 (let ((?x6058 (ite MW_S2_V1 S2_V1_!2479 ?x3808)))
 (let ((?x3945 (ite MW_S2_V1 S2_V1_!2453 E1_!2452)))
 (let ((?x3130 (+ 1 ?x3945)))
 (let ((?x1499 (ite MW_S2_V1 S2_V1_!2458 ?x3130)))
 (let (($x2776 (and (not (<= V2_0 E1_!2446)) (>= (ite MW_S1_V1 S1_V1_!2447 E1_!2446) (+ (- 1) ?x2481)) (not (<= ?x2481 E1_!2452)) (not (<= (ite MW_S2_V2 S2_V2_!2455 ?x2481) ?x3130)) (>= ?x1499 (+ (- 1) ?x3891)) (not (<= V2_0 E1_!2463)) (not (<= ?x2924 ?x3282)) (>= ?x6058 (+ (- 1) ?x2741)))))
 (let (($x5941 (= S2_V3_!2480 S2_V3_!2470)))
 (let ((?x3131 (ite MW_S1_V4 S1_V4_!2468 V4_0)))
 (let ((?x1035 (ite MW_S2_V4 S2_V4_!2473 ?x3131)))
 (let ((?x2211 (ite MW_S1_V4 S1_V4_!2478 ?x1035)))
 (let (($x725 (not R_S2_V4)))
 (let ((?x1059 (ite MW_S1_V5 S1_V5_!2467 V5_0)))
 (let ((?x1118 (ite MW_S2_V5 S2_V5_!2472 ?x1059)))
 (let ((?x2045 (ite MW_S1_V5 S1_V5_!2477 ?x1118)))
 (let (($x465 (not R_S2_V5)))
 (let ((?x3258 (ite MW_S1_V3 S1_V3_!2465 V3_0)))
 (let ((?x2474 (ite MW_S2_V3 S2_V3_!2470 ?x3258)))
 (let ((?x1645 (ite MW_S1_V3 S1_V3_!2475 ?x2474)))
 (let (($x1962 (not R_S2_V3)))
 (let (($x6031 (and (or (not R_S2_V1) (= ?x3808 ?x966)) (or $x1962 (= ?x1645 ?x3258)) (or (not R_S2_V2) (= ?x2141 ?x2785)) (or $x465 (= ?x2045 ?x1059)) (or $x725 (= ?x2211 ?x3131)))))
 (let (($x1252 (not $x6031)))
 (let (($x5134 (= S2_V3_!2480 S2_V3_!2459)))
 (let (($x4160 (and (or (not R_S2_V1) (= ?x3808 ?x3130)) (or $x1962 (= ?x1645 (ite MW_S2_V3 S2_V3_!2454 (ite MW_S1_V3 S1_V3_!2448 V3_0)))) (or (not R_S2_V2) (= ?x2141 (ite MW_S2_V2 S2_V2_!2455 ?x2481))) (or $x465 (= ?x2045 (ite MW_S2_V5 S2_V5_!2456 (ite MW_S1_V5 S1_V5_!2450 V5_0)))) (or $x725 (= ?x2211 (ite MW_S2_V4 S2_V4_!2457 (ite MW_S1_V4 S1_V4_!2451 V4_0)))))))
 (let (($x238 (not $x4160)))
 (let (($x821 (= S2_V3_!2470 S2_V3_!2459)))
 (let (($x5758 (and (or (not R_S2_V1) (= ?x966 ?x3130)) (or $x1962 (= ?x3258 (ite MW_S2_V3 S2_V3_!2454 (ite MW_S1_V3 S1_V3_!2448 V3_0)))) (or (not R_S2_V2) (= ?x2785 (ite MW_S2_V2 S2_V2_!2455 ?x2481))) (or $x465 (= ?x1059 (ite MW_S2_V5 S2_V5_!2456 (ite MW_S1_V5 S1_V5_!2450 V5_0)))) (or $x725 (= ?x3131 (ite MW_S2_V4 S2_V4_!2457 (ite MW_S1_V4 S1_V4_!2451 V4_0)))))))
 (let (($x1847 (not $x5758)))
 (let (($x800 (= S2_V3_!2454 S2_V3_!2480)))
 (let (($x228 (and (or (not R_S2_V1) (= E1_!2452 ?x3808)) (or $x1962 (= (ite MW_S1_V3 S1_V3_!2448 V3_0) ?x1645)) (or (not R_S2_V2) (= ?x2481 ?x2141)) (or $x465 (= (ite MW_S1_V5 S1_V5_!2450 V5_0) ?x2045)) (or $x725 (= (ite MW_S1_V4 S1_V4_!2451 V4_0) ?x2211)))))
 (let (($x1160 (not $x228)))
 (let (($x1956 (= S2_V3_!2454 S2_V3_!2470)))
 (let (($x204 (and (or (not R_S2_V1) (= E1_!2452 ?x966)) (or $x1962 (= (ite MW_S1_V3 S1_V3_!2448 V3_0) ?x3258)) (or (not R_S2_V2) (= ?x2481 ?x2785)) (or $x465 (= (ite MW_S1_V5 S1_V5_!2450 V5_0) ?x1059)) (or $x725 (= (ite MW_S1_V4 S1_V4_!2451 V4_0) ?x3131)))))
 (let (($x286 (not $x204)))
 (let (($x3661 (= S2_V3_!2454 S2_V3_!2459)))
 (let (($x3617 (or $x725 (= (ite MW_S1_V4 S1_V4_!2451 V4_0) (ite MW_S2_V4 S2_V4_!2457 (ite MW_S1_V4 S1_V4_!2451 V4_0))))))
 (let (($x5986 (or $x465 (= (ite MW_S1_V5 S1_V5_!2450 V5_0) (ite MW_S2_V5 S2_V5_!2456 (ite MW_S1_V5 S1_V5_!2450 V5_0))))))
 (let (($x1969 (or $x1962 (= (ite MW_S1_V3 S1_V3_!2448 V3_0) (ite MW_S2_V3 S2_V3_!2454 (ite MW_S1_V3 S1_V3_!2448 V3_0))))))
 (let (($x1715 (and (or (not R_S2_V1) (= E1_!2452 ?x3130)) $x1969 (or (not R_S2_V2) (= ?x2481 (ite MW_S2_V2 S2_V2_!2455 ?x2481))) $x5986 $x3617)))
 (let (($x5951 (not $x1715)))
 (let (($x1010 (= S2_V2_!2481 S2_V2_!2455)))
 (let (($x5539 (and (or (not R_S2_V1) (= ?x3808 E1_!2452)) (or $x1962 (= ?x1645 (ite MW_S1_V3 S1_V3_!2448 V3_0))) (or (not R_S2_V2) (= ?x2141 ?x2481)) (or $x465 (= ?x2045 (ite MW_S1_V5 S1_V5_!2450 V5_0))) (or $x725 (= ?x2211 (ite MW_S1_V4 S1_V4_!2451 V4_0))))))
 (let (($x3414 (not $x5539)))
 (let (($x1267 (= S2_V2_!2471 S2_V2_!2481)))
 (let (($x2136 (and (or (not R_S2_V1) (= ?x966 ?x3808)) (or $x1962 (= ?x3258 ?x1645)) (or (not R_S2_V2) (= ?x2785 ?x2141)) (or $x465 (= ?x1059 ?x2045)) (or $x725 (= ?x3131 ?x2211)))))
 (let (($x3393 (not $x2136)))
 (let (($x2097 (= S2_V2_!2471 S2_V2_!2455)))
 (let (($x1862 (and (or (not R_S2_V1) (= ?x966 E1_!2452)) (or $x1962 (= ?x3258 (ite MW_S1_V3 S1_V3_!2448 V3_0))) (or (not R_S2_V2) (= ?x2785 ?x2481)) (or $x465 (= ?x1059 (ite MW_S1_V5 S1_V5_!2450 V5_0))) (or $x725 (= ?x3131 (ite MW_S1_V4 S1_V4_!2451 V4_0))))))
 (let (($x2036 (not $x1862)))
 (let (($x1354 (not R_S1_V4)))
 (let (($x3264 (or $x1354 (= ?x1035 V4_0))))
 (let (($x1155 (not R_S1_V5)))
 (let (($x2503 (or $x1155 (= ?x1118 V5_0))))
 (let (($x2618 (not R_S1_V2)))
 (let (($x2680 (or $x2618 (= ?x2924 V2_0))))
 (let (($x3411 (not R_S1_V3)))
 (let (($x67 (or $x3411 (= ?x2474 V3_0))))
 (let (($x5205 (and (or (not R_S1_V1) (= ?x1089 (+ (- 1) E1_!2446))) $x67 $x2680 $x2503 $x3264)))
 (let (($x5767 (not $x5205)))
 (let (($x1639 (= S1_V4_!2468 S1_V4_!2478)))
 (let (($x5707 (or $x1354 (= V4_0 ?x1035))))
 (let (($x489 (or $x1155 (= V5_0 ?x1118))))
 (let (($x1462 (or $x2618 (= V2_0 ?x2924))))
 (let (($x5950 (or $x3411 (= V3_0 ?x2474))))
 (let (($x4196 (not (and (or (not R_S1_V1) (= E1_!2463 ?x3282)) $x5950 $x1462 $x489 $x5707))))
 (let (($x621 (and (or (not R_S2_V1) (= ?x3945 (+ (- 1) ?x3808))) (or $x1962 (= (ite MW_S2_V3 S2_V3_!2454 (ite MW_S1_V3 S1_V3_!2448 V3_0)) ?x1645)) (or (not R_S2_V2) (= (ite MW_S2_V2 S2_V2_!2455 ?x2481) ?x2141)) (or $x465 (= (ite MW_S2_V5 S2_V5_!2456 (ite MW_S1_V5 S1_V5_!2450 V5_0)) ?x2045)) (or $x725 (= (ite MW_S2_V4 S2_V4_!2457 (ite MW_S1_V4 S1_V4_!2451 V4_0)) ?x2211)))))
 (let (($x1042 (not $x621)))
 (let (($x1477 (and (or (not R_S1_V1) (= ?x1089 (+ (- 1) E1_!2463))) $x67 $x2680 $x2503 $x3264)))
 (let (($x2621 (not $x1477)))
 (let (($x2588 (and (or (not R_S2_V1) (= ?x3945 (+ (- 1) ?x966))) (or $x1962 (= (ite MW_S2_V3 S2_V3_!2454 (ite MW_S1_V3 S1_V3_!2448 V3_0)) ?x3258)) (or (not R_S2_V2) (= (ite MW_S2_V2 S2_V2_!2455 ?x2481) ?x2785)) (or $x465 (= (ite MW_S2_V5 S2_V5_!2456 (ite MW_S1_V5 S1_V5_!2450 V5_0)) ?x1059)) (or $x725 (= (ite MW_S2_V4 S2_V4_!2457 (ite MW_S1_V4 S1_V4_!2451 V4_0)) ?x3131)))))
 (let (($x714 (not $x2588)))
 (let (($x987 (= E1_!2463 E1_!2446)))
 (let (($x1950 (and (or (not R_E1_V2) (= ?x2481 V2_0)) (or (not R_E1_V5) (= (ite MW_S1_V5 S1_V5_!2450 V5_0) V5_0)) (or (not R_E1_V4) (= (ite MW_S1_V4 S1_V4_!2451 V4_0) V4_0)))))
 (let (($x3055 (not $x1950)))
 (let (($x1405 (or $x725 (= (ite MW_S2_V4 S2_V4_!2457 (ite MW_S1_V4 S1_V4_!2451 V4_0)) (ite MW_S1_V4 S1_V4_!2451 V4_0)))))
 (let (($x4438 (or $x465 (= (ite MW_S2_V5 S2_V5_!2456 (ite MW_S1_V5 S1_V5_!2450 V5_0)) (ite MW_S1_V5 S1_V5_!2450 V5_0)))))
 (let (($x4073 (or $x1962 (= (ite MW_S2_V3 S2_V3_!2454 (ite MW_S1_V3 S1_V3_!2448 V3_0)) (ite MW_S1_V3 S1_V3_!2448 V3_0)))))
 (let (($x1886 (and (or (not R_S2_V1) (= ?x3945 (+ (- 1) E1_!2452))) $x4073 (or (not R_S2_V2) (= (ite MW_S2_V2 S2_V2_!2455 ?x2481) ?x2481)) $x4438 $x1405)))
 (let (($x1907 (or (not (and (or (not R_S1_V1) (= E1_!2446 ?x3282)) $x5950 $x1462 $x489 $x5707)) (= S1_V1_!2447 S1_V1_!2474))))
 (let (($x2956 (and $x1907 (or (not (or (not R_S1_V1) $x987)) (= S1_V1_!2464 S1_V1_!2447)) (or $x4196 (= S1_V1_!2464 S1_V1_!2474)) (or $x286 (= S2_V5_!2456 S2_V5_!2472)) (or (not $x1886) (= S2_V5_!2461 S2_V5_!2456)) (or $x714 (= S2_V5_!2461 S2_V5_!2472)) (or $x3414 (= S2_V5_!2482 S2_V5_!2456)) (or $x238 (= S2_V5_!2482 S2_V5_!2461)) (or $x1252 (= S2_V5_!2482 S2_V5_!2472)) (or (not (or (not R_S1_V1) $x987)) (= S1_V3_!2465 S1_V3_!2448)) (or $x4196 (= S1_V3_!2465 S1_V3_!2475)) (or $x5767 (= S1_V3_!2475 S1_V3_!2448)) (or (not (or (not R_S1_V1) $x987)) (= S1_V2_!2466 S1_V2_!2449)) (or $x5767 (= S1_V2_!2476 S1_V2_!2449)) (or $x2621 (= S1_V2_!2476 S1_V2_!2466)) (or $x3055 (= E1_!2452 E1_!2446)) (or $x3055 (= E1_!2452 E1_!2463)) $x987 (or $x5951 (= S2_V4_!2457 S2_V4_!2462)) (or $x286 (= S2_V4_!2457 S2_V4_!2473)) (or $x1160 (= S2_V4_!2457 S2_V4_!2483)) (or $x714 (= S2_V4_!2462 S2_V4_!2473)) (or $x1042 (= S2_V4_!2462 S2_V4_!2483)) (or $x1252 (= S2_V4_!2483 S2_V4_!2473)) (or (not (or (not R_S1_V1) $x987)) (= S1_V5_!2467 S1_V5_!2450)) (or $x5767 (= S1_V5_!2477 S1_V5_!2450)) (or $x2621 (= S1_V5_!2477 S1_V5_!2467)) (or $x5951 (= S2_V1_!2453 S2_V1_!2458)) (or $x1160 (= S2_V1_!2453 S2_V1_!2479)) (or $x1042 (= S2_V1_!2458 S2_V1_!2479)) (or $x2036 (= S2_V1_!2469 S2_V1_!2453)) (or $x1847 (= S2_V1_!2469 S2_V1_!2458)) (or $x3393 (= S2_V1_!2469 S2_V1_!2479)) (or (not (or (not R_S1_V1) $x987)) (= S1_V4_!2468 S1_V4_!2451)) (or $x4196 $x1639) (or $x5767 (= S1_V4_!2478 S1_V4_!2451)) (or $x5951 (= S2_V2_!2455 S2_V2_!2460)) (or $x2036 $x2097) (or $x1847 (= S2_V2_!2471 S2_V2_!2460)) (or $x3393 $x1267) (or $x3414 $x1010) (or $x238 (= S2_V2_!2481 S2_V2_!2460)) (or $x5951 $x3661) (or $x286 $x1956) (or $x1160 $x800) (or $x1847 $x821) (or $x238 $x5134) (or $x1252 $x5941) (not MW_S1_V1) (not MW_S1_V2) (or (not MW_S1_V5) W_S1_V5) (or (not MW_S1_V4) W_S1_V4) (or (not MW_S2_V1) W_S2_V1) (or (not MW_S2_V3) W_S2_V3) (or (not MW_S2_V2) W_S2_V2) (or (not MW_S2_V5) W_S2_V5))))
 (or (not $x2956) (not $x2776) (and (= ?x1499 ?x6058) $x2032 (= ?x3891 ?x2741) $x3373 $x5857))))))))))))))))))))))))))))))))))))))))))))))))))))))))))))))))))))))))))))))))))))))))))))))
 )
 )
 )
 )
 )
 )
 )
 )
 )
 )
 )
 )
 )
 )
 )
 )
 )
 )
 )
 )
 )
 )
 )
 )
 )
 )
 )
 )
 )
 )
 )
 )
 )
 )
 )
 )
 )
 )
 )
 )
 )
 )
 )
 )
 )
 )
 )
 )
 )
 )
 )
 ))
 (let (($x1575 (or (and W_S2_V2 R_E1_V2) (and W_S2_V5 R_E1_V5) R_E1_V4)))
 (let (($x2571 (= DISJ_W_S2_R_E1 (not $x1575))))
 (let (($x1750 (and W_S2_V5 R_S2_V5)))
 (let (($x4061 (and W_S2_V2 R_S2_V2)))
 (let (($x3475 (and W_S2_V3 R_S2_V3)))
 (let (($x813 (and W_S2_V1 R_S2_V1)))
 (let (($x3427 (= DISJ_W_S2_R_S2 (not (or $x813 $x3475 $x4061 $x1750 R_S2_V4)))))
 (let (($x1511 (and W_S2_V5 R_S1_V5)))
 (let (($x2385 (and W_S2_V2 R_S1_V2)))
 (let (($x5370 (and W_S2_V3 R_S1_V3)))
 (let (($x4521 (and W_S2_V1 R_S1_V1)))
 (let (($x1651 (= DISJ_W_S2_R_S1 (not (or $x4521 $x5370 $x2385 $x1511 R_S1_V4)))))
 (let (($x2035 (= DISJ_W_S1_W_S2 (not (or W_S2_V3 (and W_S1_V5 W_S2_V5) W_S1_V4)))))
 (let (($x5336 (not R_E1_V3)))
 (let (($x5795 (or R_S2_V3 (and W_S1_V5 R_S2_V5) (and W_S1_V4 R_S2_V4))))
 (let (($x3993 (= DISJ_W_S1_R_S2 (not $x5795))))
 (let (($x1390 (not (or R_S1_V3 (and W_S1_V5 R_S1_V5) (and W_S1_V4 R_S1_V4)))))
 (let (($x5759 (= DISJ_W_S1_R_S1 $x1390)))
 (let (($x4803 (not R_S1_V1)))
 (let (($x3041 (and $x4803 DISJ_W_S1_R_S1)))
 (let (($x2888 (and $x2438 DISJ_W_S2_R_S1 DISJ_W_S1_R_S1)))
 (let (($x3487 (or $x2888 $x3254 $x3041)))
 (let (($x2592 (not W_S1_V2)))
 (let (($x256 (not W_S1_V1)))
 (let (($x2812 (not R_E1_V1)))
 (let (($x318 (and DISJ_W_S1_R_E1 $x2812 $x256 $x2592 $x3487 W_S1_V3 W_S2_V4 $x5759 $x3993 $x5336 $x2035 $x1651 $x3427 $x2571 $x3516 $x637 $x2364)))
 (and $x318 $x3846 $x3788 $x141 $x3616 $x3736 $x3222 $x2433 $x173 $x2672 $x2005 $x5923 $x812 $x329 $x1113)))))))))))))))))))))))))))))))))))))))))))))))))))
(check-sat)
